
  32    4
  10   10   10   10

   0   0   0   0   0   3 2 4 7 
   8  10  10  10  10   1 3 
   4  10  10  10  10   2 11 5 
   7  10  10  10  10   4 12 10 8 6 
   3  10  10  10  10   3 17 10 8 
   7  10  10  10  10   3 19 17 13 
   3  10  10  10  10   2 13 12 
   1  10  10  10  10   1 9 
   8  10  10  10  10   2 19 13 
   9  10  10  10  10   2 19 13 
   3  10  10  10  10   1 12 
   2  10  10  10  10   3 20 19 14 
   1  10  10  10  10   2 20 14 
   1  10  10  10  10   1 15 
   4  10  10  10  10   2 21 16 
   6  10  10  10  10   4 28 26 23 18 
   2  10  10  10  10   3 28 26 22 
   2  10  10  10  10   2 24 22 
   7  10  10  10  10   2 23 22 
  10  10  10  10  10   2 26 25 
   9  10  10  10  10   1 22 
   4  10  10  10  10   2 31 25 
   3  10  10  10  10   2 31 25 
   1  10  10  10  10   2 31 29 
   2  10  10  10  10   1 27 
   2  10  10  10  10   2 31 30 
   5  10  10  10  10   1 29 
   9  10  10  10  10   1 29 
   8  10  10  10  10   1 30 
   8  10  10  10  10   1 32
   9  10  10  10  10   1 32
   0   0   0   0   0   0 
